c Generated map
c Size: 15 * 15, weights in range: 1 to 10, walls: True, with ratio 0.1
c dim 3 of 4
c
p sp 225 337
c graph contains 225 nodes and 337 arcs
c
a 1 16 9
a 16 1 9
a 1 2 5
a 2 1 5
a 2 17 4
a 17 2 4
a 2 3 4
a 3 2 4
a 3 18 5
a 18 3 5
a 3 4 10
a 4 3 10
a 4 19 8
a 19 4 8
a 4 5 4
a 5 4 4
a 5 20 6
a 20 5 6
a 5 6 5
a 6 5 5
a 6 21 3
a 21 6 3
a 6 7 5
a 7 6 5
a 7 22 3
a 22 7 3
a 7 8 1
a 8 7 1
a 8 23 5
a 23 8 5
a 8 9 5
a 9 8 5
a 9 24 5
a 24 9 5
a 9 10 4
a 10 9 4
a 10 11 10
a 11 10 10
a 11 26 8
a 26 11 8
a 11 12 9
a 12 11 9
a 12 27 3
a 27 12 3
a 12 13 7
a 13 12 7
a 13 28 6
a 28 13 6
a 15 30 4
a 30 15 4
a 16 31 10
a 31 16 10
a 16 17 1
a 17 16 1
a 17 32 1
a 32 17 1
a 17 18 1
a 18 17 1
a 18 19 6
a 19 18 6
a 19 34 4
a 34 19 4
a 19 20 3
a 20 19 3
a 20 35 1
a 35 20 1
a 20 21 7
a 21 20 7
a 21 36 1
a 36 21 1
a 21 22 8
a 22 21 8
a 22 37 7
a 37 22 7
a 22 23 7
a 23 22 7
a 23 38 9
a 38 23 9
a 23 24 2
a 24 23 2
a 24 39 7
a 39 24 7
a 26 41 2
a 41 26 2
a 26 27 7
a 27 26 7
a 27 28 8
a 28 27 8
a 28 43 2
a 43 28 2
a 28 29 2
a 29 28 2
a 29 44 1
a 44 29 1
a 29 30 3
a 30 29 3
a 30 45 2
a 45 30 2
a 31 46 3
a 46 31 3
a 31 32 2
a 32 31 2
a 34 49 2
a 49 34 2
a 34 35 5
a 35 34 5
a 35 50 7
a 50 35 7
a 35 36 3
a 36 35 3
a 36 51 8
a 51 36 8
a 36 37 4
a 37 36 4
a 37 52 3
a 52 37 3
a 37 38 9
a 38 37 9
a 38 39 2
a 39 38 2
a 39 54 5
a 54 39 5
a 39 40 8
a 40 39 8
a 40 55 10
a 55 40 10
a 40 41 9
a 41 40 9
a 41 56 5
a 56 41 5
a 43 58 2
a 58 43 2
a 43 44 8
a 44 43 8
a 44 59 3
a 59 44 3
a 44 45 4
a 45 44 4
a 45 60 1
a 60 45 1
a 48 63 9
a 63 48 9
a 48 49 8
a 49 48 8
a 49 64 8
a 64 49 8
a 49 50 4
a 50 49 4
a 50 65 5
a 65 50 5
a 50 51 8
a 51 50 8
a 51 66 6
a 66 51 6
a 51 52 3
a 52 51 3
a 52 67 1
a 67 52 1
a 54 69 3
a 69 54 3
a 54 55 6
a 55 54 6
a 55 70 4
a 70 55 4
a 55 56 8
a 56 55 8
a 56 71 3
a 71 56 3
a 56 57 1
a 57 56 1
a 57 72 6
a 72 57 6
a 57 58 7
a 58 57 7
a 58 73 7
a 73 58 7
a 58 59 2
a 59 58 2
a 59 74 3
a 74 59 3
a 59 60 7
a 60 59 7
a 60 75 5
a 75 60 5
a 62 77 3
a 77 62 3
a 62 63 9
a 63 62 9
a 63 78 6
a 78 63 6
a 63 64 8
a 64 63 8
a 64 79 8
a 79 64 8
a 64 65 10
a 65 64 10
a 65 80 3
a 80 65 3
a 65 66 4
a 66 65 4
a 66 81 3
a 81 66 3
a 66 67 10
a 67 66 10
a 67 82 3
a 82 67 3
a 67 68 2
a 68 67 2
a 68 83 7
a 83 68 7
a 68 69 4
a 69 68 4
a 69 84 9
a 84 69 9
a 69 70 8
a 70 69 8
a 70 85 2
a 85 70 2
a 70 71 2
a 71 70 2
a 71 86 3
a 86 71 3
a 71 72 5
a 72 71 5
a 72 87 6
a 87 72 6
a 72 73 4
a 73 72 4
a 73 88 6
a 88 73 6
a 73 74 4
a 74 73 4
a 74 89 2
a 89 74 2
a 74 75 5
a 75 74 5
a 75 90 9
a 90 75 9
a 76 91 4
a 91 76 4
a 76 77 10
a 77 76 10
a 77 92 6
a 92 77 6
a 77 78 2
a 78 77 2
a 78 93 1
a 93 78 1
a 78 79 1
a 79 78 1
a 79 94 6
a 94 79 6
a 79 80 4
a 80 79 4
a 80 95 2
a 95 80 2
a 80 81 7
a 81 80 7
a 81 82 3
a 82 81 3
a 82 97 5
a 97 82 5
a 82 83 10
a 83 82 10
a 83 98 3
a 98 83 3
a 83 84 6
a 84 83 6
a 84 99 9
a 99 84 9
a 84 85 9
a 85 84 9
a 85 86 10
a 86 85 10
a 86 101 7
a 101 86 7
a 86 87 3
a 87 86 3
a 87 88 3
a 88 87 3
a 88 89 4
a 89 88 4
a 89 104 9
a 104 89 9
a 89 90 5
a 90 89 5
a 90 105 5
a 105 90 5
a 91 106 7
a 106 91 7
a 91 92 6
a 92 91 6
a 92 107 2
a 107 92 2
a 92 93 3
a 93 92 3
a 93 94 10
a 94 93 10
a 94 109 3
a 109 94 3
a 94 95 4
a 95 94 4
a 95 110 3
a 110 95 3
a 97 112 3
a 112 97 3
a 97 98 2
a 98 97 2
a 98 113 4
a 113 98 4
a 98 99 5
a 99 98 5
a 99 114 4
a 114 99 4
a 101 116 9
a 116 101 9
a 104 119 10
a 119 104 10
a 104 105 1
a 105 104 1
a 105 120 1
a 120 105 1
a 106 121 3
a 121 106 3
a 106 107 8
a 107 106 8
a 107 122 10
a 122 107 10
a 109 124 2
a 124 109 2
a 109 110 1
a 110 109 1
a 110 125 4
a 125 110 4
a 110 111 4
a 111 110 4
a 111 126 10
a 126 111 10
a 111 112 2
a 112 111 2
a 112 127 8
a 127 112 8
a 112 113 9
a 113 112 9
a 113 128 3
a 128 113 3
a 113 114 9
a 114 113 9
a 114 129 4
a 129 114 4
a 114 115 7
a 115 114 7
a 115 130 10
a 130 115 10
a 115 116 6
a 116 115 6
a 116 131 7
a 131 116 7
a 116 117 7
a 117 116 7
a 117 118 7
a 118 117 7
a 118 133 6
a 133 118 6
a 118 119 10
a 119 118 10
a 119 134 4
a 134 119 4
a 119 120 9
a 120 119 9
a 120 135 3
a 135 120 3
a 121 136 8
a 136 121 8
a 121 122 8
a 122 121 8
a 122 137 2
a 137 122 2
a 122 123 6
a 123 122 6
a 123 138 4
a 138 123 4
a 123 124 5
a 124 123 5
a 124 125 4
a 125 124 4
a 125 140 8
a 140 125 8
a 125 126 3
a 126 125 3
a 126 141 3
a 141 126 3
a 126 127 7
a 127 126 7
a 127 128 7
a 128 127 7
a 128 143 5
a 143 128 5
a 128 129 9
a 129 128 9
a 129 144 9
a 144 129 9
a 129 130 7
a 130 129 7
a 130 145 5
a 145 130 5
a 130 131 5
a 131 130 5
a 133 148 6
a 148 133 6
a 133 134 7
a 134 133 7
a 134 149 6
a 149 134 6
a 134 135 10
a 135 134 10
a 136 151 7
a 151 136 7
a 136 137 9
a 137 136 9
a 137 152 1
a 152 137 1
a 137 138 7
a 138 137 7
a 138 153 5
a 153 138 5
a 140 155 4
a 155 140 4
a 140 141 10
a 141 140 10
a 141 156 9
a 156 141 9
a 143 158 9
a 158 143 9
a 143 144 3
a 144 143 3
a 144 159 5
a 159 144 5
a 144 145 7
a 145 144 7
a 145 160 9
a 160 145 9
a 147 162 2
a 162 147 2
a 147 148 5
a 148 147 5
a 148 163 6
a 163 148 6
a 148 149 7
a 149 148 7
a 149 164 6
a 164 149 6
a 151 166 2
a 166 151 2
a 151 152 8
a 152 151 8
a 152 167 5
a 167 152 5
a 152 153 6
a 153 152 6
a 153 154 9
a 154 153 9
a 154 169 9
a 169 154 9
a 154 155 10
a 155 154 10
a 155 170 5
a 170 155 5
a 155 156 10
a 156 155 10
a 156 171 6
a 171 156 6
a 156 157 2
a 157 156 2
a 157 158 10
a 158 157 10
a 158 173 9
a 173 158 9
a 158 159 3
a 159 158 3
a 159 174 10
a 174 159 10
a 159 160 4
a 160 159 4
a 160 175 8
a 175 160 8
a 160 161 7
a 161 160 7
a 161 176 7
a 176 161 7
a 161 162 5
a 162 161 5
a 162 177 7
a 177 162 7
a 162 163 10
a 163 162 10
a 163 178 3
a 178 163 3
a 163 164 8
a 164 163 8
a 164 179 5
a 179 164 5
a 164 165 10
a 165 164 10
a 165 180 6
a 180 165 6
a 166 181 8
a 181 166 8
a 166 167 10
a 167 166 10
a 167 182 7
a 182 167 7
a 169 184 5
a 184 169 5
a 169 170 1
a 170 169 1
a 170 185 10
a 185 170 10
a 170 171 9
a 171 170 9
a 171 186 6
a 186 171 6
a 173 188 1
a 188 173 1
a 173 174 9
a 174 173 9
a 174 189 7
a 189 174 7
a 174 175 7
a 175 174 7
a 175 190 5
a 190 175 5
a 175 176 5
a 176 175 5
a 176 191 4
a 191 176 4
a 176 177 4
a 177 176 4
a 177 178 9
a 178 177 9
a 178 193 2
a 193 178 2
a 178 179 1
a 179 178 1
a 179 194 5
a 194 179 5
a 179 180 4
a 180 179 4
a 180 195 2
a 195 180 2
a 181 182 2
a 182 181 2
a 182 197 1
a 197 182 1
a 182 183 9
a 183 182 9
a 183 198 7
a 198 183 7
a 183 184 6
a 184 183 6
a 184 199 9
a 199 184 9
a 184 185 8
a 185 184 8
a 185 200 4
a 200 185 4
a 185 186 9
a 186 185 9
a 186 187 7
a 187 186 7
a 187 202 7
a 202 187 7
a 187 188 4
a 188 187 4
a 188 203 8
a 203 188 8
a 188 189 2
a 189 188 2
a 189 204 7
a 204 189 7
a 189 190 6
a 190 189 6
a 190 205 6
a 205 190 6
a 190 191 9
a 191 190 9
a 191 206 2
a 206 191 2
a 193 208 7
a 208 193 7
a 193 194 9
a 194 193 9
a 194 209 10
a 209 194 10
a 194 195 2
a 195 194 2
a 195 210 6
a 210 195 6
a 197 212 4
a 212 197 4
a 197 198 7
a 198 197 7
a 198 213 4
a 213 198 4
a 198 199 1
a 199 198 1
a 199 214 10
a 214 199 10
a 199 200 3
a 200 199 3
a 200 215 9
a 215 200 9
a 202 217 2
a 217 202 2
a 202 203 4
a 203 202 4
a 203 218 4
a 218 203 4
a 203 204 4
a 204 203 4
a 204 219 10
a 219 204 10
a 204 205 8
a 205 204 8
a 205 220 8
a 220 205 8
a 205 206 7
a 206 205 7
a 206 221 3
a 221 206 3
a 206 207 8
a 207 206 8
a 207 222 6
a 222 207 6
a 207 208 8
a 208 207 8
a 208 223 8
a 223 208 8
a 208 209 6
a 209 208 6
a 209 224 7
a 224 209 7
a 209 210 10
a 210 209 10
a 210 225 9
a 225 210 9
a 211 212 9
a 212 211 9
a 212 213 9
a 213 212 9
a 213 214 2
a 214 213 2
a 214 215 6
a 215 214 6
a 215 216 3
a 216 215 3
a 216 217 4
a 217 216 4
a 217 218 8
a 218 217 8
a 218 219 10
a 219 218 10
a 219 220 7
a 220 219 7
a 220 221 2
a 221 220 2
a 221 222 7
a 222 221 7
a 222 223 2
a 223 222 2
a 223 224 8
a 224 223 8
a 224 225 7
a 225 224 7
